Route #1: 1 6 37 41 17 11 18 3 39 35 44 1
Route #2: 1 12 5 27 29 8 15 1
Route #3: 1 47 23 25 31 26 16 24 51 46 22 1
Route #4: 1 13 9 28 32 38 33 42 1
Route #5: 1 36 34 20 4 49 40 1
Route #6: 1 19 30 14 43 1
Route #7: 1 45 21 2 10 50 48 1
cost 1080
